Welcome to the CBC MILP Solver 
Version: 2.10.3 
Build Date: Dec 15 2019 

command line - /home/cdmonsalvea/AI_OR_Workflow/.venv/lib/python3.10/site-packages/pulp/solverdir/cbc/linux/64/cbc /tmp/1646f4009d7e4285bc7886d1959284b1-pulp.mps -sec 3600 -timeMode elapsed -branch -printingOptions all -solution /tmp/1646f4009d7e4285bc7886d1959284b1-pulp.sol (default strategy 1)
At line 2 NAME          MODEL
At line 3 ROWS
At line 63 COLUMNS
At line 2674 RHS
At line 2733 BOUNDS
At line 2763 ENDATA
Problem MODEL has 58 rows, 870 columns and 1711 elements
Coin0008I MODEL read with 0 errors
seconds was changed from 1e+100 to 3600
Option for timeMode changed from cpu to elapsed
Continuous objective value is 1.34443e+07 - 0.00 seconds
Cgl0004I processed model has 58 rows, 870 columns (29 integer (29 of which binary)) and 1711 elements
Cbc0038I Initial state - 29 integers unsatisfied sum - 4.13305
Cbc0038I Pass   1: suminf.    0.14383 (1) obj. 2.59669e+08 iterations 28
Cbc0038I Solution found of 2.60388e+08
Cbc0038I Relaxing continuous gives 2.60388e+08
Cbc0038I Before mini branch and bound, 0 integers at bound fixed and 784 continuous
Cbc0038I Full problem 58 rows 870 columns, reduced to 57 rows 84 columns
Cbc0038I Mini branch and bound improved solution from 2.60388e+08 to 7.39463e+07 (0.01 seconds)
Cbc0038I Freeing continuous variables gives a solution of 6.5938e+07
Cbc0038I Round again with cutoff of 6.06886e+07
Cbc0038I Pass   2: suminf.    2.17375 (15) obj. 6.06886e+07 iterations 15
Cbc0038I Pass   3: suminf.    1.83548 (14) obj. 6.06886e+07 iterations 1
Cbc0038I Pass   4: suminf.    1.14232 (9) obj. 6.06886e+07 iterations 40
Cbc0038I Pass   5: suminf.    2.23925 (11) obj. 6.06886e+07 iterations 20
Cbc0038I Pass   6: suminf.    1.91855 (11) obj. 6.06886e+07 iterations 2
Cbc0038I Pass   7: suminf.    2.23925 (11) obj. 6.06886e+07 iterations 3
Cbc0038I Pass   8: suminf.    1.97861 (11) obj. 6.06886e+07 iterations 1
Cbc0038I Pass   9: suminf.    2.23925 (11) obj. 6.06886e+07 iterations 3
Cbc0038I Pass  10: suminf.    2.31826 (12) obj. 6.06886e+07 iterations 15
Cbc0038I Pass  11: suminf.    1.94609 (11) obj. 6.06886e+07 iterations 2
Cbc0038I Pass  12: suminf.    2.31826 (12) obj. 6.06886e+07 iterations 12
Cbc0038I Pass  13: suminf.    1.21437 (6) obj. 6.06886e+07 iterations 16
Cbc0038I Pass  14: suminf.    1.31826 (11) obj. 6.06886e+07 iterations 12
Cbc0038I Pass  15: suminf.    1.18852 (10) obj. 6.06886e+07 iterations 2
Cbc0038I Pass  16: suminf.    2.23925 (11) obj. 6.06886e+07 iterations 7
Cbc0038I Pass  17: suminf.    1.97861 (11) obj. 6.06886e+07 iterations 1
Cbc0038I Pass  18: suminf.    1.33383 (8) obj. 6.06886e+07 iterations 16
Cbc0038I Pass  19: suminf.    1.82868 (11) obj. 6.06886e+07 iterations 24
Cbc0038I Pass  20: suminf.    1.82868 (11) obj. 6.06886e+07 iterations 0
Cbc0038I Pass  21: suminf.    2.23925 (11) obj. 6.06886e+07 iterations 8
Cbc0038I Pass  22: suminf.    1.47834 (12) obj. 6.06886e+07 iterations 15
Cbc0038I Pass  23: suminf.    2.31826 (12) obj. 6.06886e+07 iterations 6
Cbc0038I Pass  24: suminf.    1.97861 (11) obj. 6.06886e+07 iterations 2
Cbc0038I Pass  25: suminf.    2.23925 (11) obj. 6.06886e+07 iterations 3
Cbc0038I Pass  26: suminf.    1.95198 (12) obj. 6.06886e+07 iterations 10
Cbc0038I Pass  27: suminf.    1.20751 (9) obj. 6.06886e+07 iterations 12
Cbc0038I Pass  28: suminf.    2.25562 (12) obj. 6.06886e+07 iterations 17
Cbc0038I Pass  29: suminf.    2.25562 (12) obj. 6.06886e+07 iterations 0
Cbc0038I Pass  30: suminf.    2.31826 (12) obj. 6.06886e+07 iterations 5
Cbc0038I Pass  31: suminf.    1.97861 (11) obj. 6.06886e+07 iterations 2
Cbc0038I No solution found this major pass
Cbc0038I Before mini branch and bound, 0 integers at bound fixed and 777 continuous
Cbc0038I Full problem 58 rows 870 columns, reduced to 43 rows 77 columns
Cbc0038I Mini branch and bound did not improve solution (0.06 seconds)
Cbc0038I After 0.06 seconds - Feasibility pump exiting with objective of 6.5938e+07 - took 0.05 seconds
Cbc0012I Integer solution of 65937956 found by feasibility pump after 0 iterations and 0 nodes (0.06 seconds)
Cbc0012I Integer solution of 65460106 found by DiveCoefficient after 118 iterations and 0 nodes (0.09 seconds)
Cbc0031I 38 added rows had average density of 57.631579
Cbc0013I At root node, 38 cuts changed objective from 13444330 to 60601910 in 11 passes
Cbc0014I Cut generator 0 (Probing) - 2 row cuts average 29.0 elements, 0 column cuts (0 active)  in 0.005 seconds - new frequency is -100
Cbc0014I Cut generator 1 (Gomory) - 40 row cuts average 48.9 elements, 0 column cuts (0 active)  in 0.002 seconds - new frequency is 1
Cbc0014I Cut generator 2 (Knapsack) - 0 row cuts average 0.0 elements, 0 column cuts (0 active)  in 0.001 seconds - new frequency is -100
Cbc0014I Cut generator 3 (Clique) - 0 row cuts average 0.0 elements, 0 column cuts (0 active)  in 0.000 seconds - new frequency is -100
Cbc0014I Cut generator 4 (MixedIntegerRounding2) - 0 row cuts average 0.0 elements, 0 column cuts (0 active)  in 0.002 seconds - new frequency is -100
Cbc0014I Cut generator 5 (FlowCover) - 0 row cuts average 0.0 elements, 0 column cuts (0 active)  in 0.004 seconds - new frequency is -100
Cbc0014I Cut generator 6 (TwoMirCuts) - 61 row cuts average 73.2 elements, 0 column cuts (0 active)  in 0.002 seconds - new frequency is 1
Cbc0010I After 0 nodes, 1 on tree, 65460106 best solution, best possible 60601910 (0.09 seconds)
Cbc0012I Integer solution of 64253694 found by DiveCoefficient after 176 iterations and 3 nodes (0.12 seconds)
Cbc0012I Integer solution of 64135840 found by DiveCoefficient after 190 iterations and 4 nodes (0.12 seconds)
Cbc0012I Integer solution of 63148634 found by DiveCoefficient after 203 iterations and 6 nodes (0.13 seconds)
Cbc0012I Integer solution of 62760472 found by DiveCoefficient after 213 iterations and 7 nodes (0.13 seconds)
Cbc0012I Integer solution of 62409958 found by DiveCoefficient after 214 iterations and 8 nodes (0.13 seconds)
Cbc0016I Integer solution of 61899312 found by strong branching after 216 iterations and 8 nodes (0.13 seconds)
Cbc0012I Integer solution of 61563818 found by DiveCoefficient after 256 iterations and 13 nodes (0.14 seconds)
Cbc0001I Search completed - best objective 61563818.38470356, took 298 iterations and 16 nodes (0.14 seconds)
Cbc0032I Strong branching done 100 times (481 iterations), fathomed 3 nodes and fixed 0 variables
Cbc0035I Maximum depth 7, 0 variables fixed on reduced cost
Cuts at root node changed objective from 1.34443e+07 to 6.06019e+07
Probing was tried 11 times and created 2 cuts of which 0 were active after adding rounds of cuts (0.005 seconds)
Gomory was tried 26 times and created 40 cuts of which 0 were active after adding rounds of cuts (0.003 seconds)
Knapsack was tried 11 times and created 0 cuts of which 0 were active after adding rounds of cuts (0.001 seconds)
Clique was tried 11 times and created 0 cuts of which 0 were active after adding rounds of cuts (0.000 seconds)
MixedIntegerRounding2 was tried 11 times and created 0 cuts of which 0 were active after adding rounds of cuts (0.002 seconds)
FlowCover was tried 11 times and created 0 cuts of which 0 were active after adding rounds of cuts (0.004 seconds)
TwoMirCuts was tried 26 times and created 75 cuts of which 0 were active after adding rounds of cuts (0.003 seconds)
ZeroHalf was tried 1 times and created 0 cuts of which 0 were active after adding rounds of cuts (0.000 seconds)

Result - Optimal solution found

Objective value:                61563818.38470356
Enumerated nodes:               16
Total iterations:               298
Time (CPU seconds):             0.13
Time (Wallclock seconds):       0.14

Option for printingOptions changed from normal to all
Total time (CPU seconds):       0.13   (Wallclock seconds):       0.14

